results_rootrelaxation/bin018_050_020.srr.sol
solution status: optimal solution found
objective value:                                    0
_var1565_                          0.0562536445536064 	(obj:0)
_var2071_                           0.444129143755506 	(obj:0)
_var2690_                            0.17091531045596 	(obj:0)
_var2692_                           0.184060661982899 	(obj:0)
_var2701_                           0.257362308235783 	(obj:0)
_var2702_                           0.269107677742304 	(obj:0)
_var2706_                          0.0434926857547469 	(obj:0)
_var2707_                          0.0721408774416744 	(obj:0)
_var2721_                          0.0792980912457004 	(obj:0)
_var2722_                           0.238221439452631 	(obj:0)
_var2724_                           0.221161272479141 	(obj:0)
_var2727_                           0.172060953284145 	(obj:0)
_var2733_                          0.0455226092300649 	(obj:0)
_var2737_                           0.113194870815424 	(obj:0)
_var2738_                          0.0206296391201558 	(obj:0)
_var2740_                           0.127428323529654 	(obj:0)
_var2741_                          0.0226357256212035 	(obj:0)
_var2743_                           0.200910838697092 	(obj:0)
_var2745_                          0.0690575266032172 	(obj:0)
_var2746_                           0.230943968439412 	(obj:0)
_var2747_                           0.106154816212244 	(obj:0)
_var2748_                          0.0926828572845359 	(obj:0)
_var2749_                          0.0754749136449804 	(obj:0)
_var2755_                           0.277037059320659 	(obj:0)
_var2756_                          0.0886554842874474 	(obj:0)
_var2757_                           0.125285008381059 	(obj:0)
_var2760_                           0.234498661958046 	(obj:0)
_var2763_                           0.250003680908375 	(obj:0)
_var2766_                           0.326439633090693 	(obj:0)
_var2771_                           0.119546644540729 	(obj:0)
_var2772_                          0.0489758591043325 	(obj:0)
_var2773_                          0.0260454345143621 	(obj:0)
_var2775_                          0.0840942768132721 	(obj:0)
_var2776_                          0.0616132556071281 	(obj:0)
_var2777_                           0.140760048001345 	(obj:0)
_var2784_                           0.170514831512114 	(obj:0)
_var2786_                           0.116608876071902 	(obj:0)
_var2800_                           0.225851512103586 	(obj:0)
_var2808_                           0.318092306940751 	(obj:0)
_var2809_                           0.139722440653771 	(obj:0)
_var2813_                            0.14301286526599 	(obj:0)
_var2814_                           0.220048530161893 	(obj:0)
_var2816_                           0.163048961020777 	(obj:0)
_var2820_                           0.158189888505411 	(obj:0)
_var2821_                           0.184569012723094 	(obj:0)
_var2822_                            0.19638428944923 	(obj:0)
_var2828_                          0.0951110308055623 	(obj:0)
_var2830_                           0.161508741966802 	(obj:0)
_var2832_                          0.0917444624991257 	(obj:0)
_var2833_                         0.00883142525626607 	(obj:0)
_var2835_                          0.0613935037435076 	(obj:0)
_var2837_                           0.103563687847643 	(obj:0)
_var2838_                           0.178437174535406 	(obj:0)
_var2840_                           0.163208604574975 	(obj:0)
_var2844_                           0.253864240678869 	(obj:0)
_var2846_                            0.23254666918808 	(obj:0)
_var2849_                          0.0374533608483217 	(obj:0)
_var2852_                          0.0441873357502261 	(obj:0)
_var2853_                           0.131509499511946 	(obj:0)
_var2857_                          0.0851552973370535 	(obj:0)
_var2858_                           0.252377415006715 	(obj:0)
_var2859_                          0.0507281078970985 	(obj:0)
_var2861_                           0.108561487828513 	(obj:0)
_var2864_                           0.218425357218332 	(obj:0)
_var2865_                           0.115506546219533 	(obj:0)
_var2866_                           0.232694636419572 	(obj:0)
_var2867_                           0.120933160999306 	(obj:0)
_var2868_                          0.0821920492775957 	(obj:0)
_var2869_                           0.162944035379214 	(obj:0)
_var2872_                          0.0220967568843654 	(obj:0)
_var2873_                           0.182011821873831 	(obj:0)
_var2874_                           0.122301132348172 	(obj:0)
_var2875_                           0.055358403012362 	(obj:0)
_var2880_                            0.11392017587051 	(obj:0)
_var2881_                          0.0568091278476019 	(obj:0)
_var2882_                         0.000302455510170774 	(obj:0)
_var2883_                          0.0589714651925587 	(obj:0)
_var2884_                            0.18275428720637 	(obj:0)
_var2886_                           0.173236868007491 	(obj:0)
_var2887_                          0.0666841253748018 	(obj:0)
_var2888_                         0.00408662229291301 	(obj:0)
_var2889_                           0.104062679715768 	(obj:0)
_var2890_                           0.117667834805619 	(obj:0)
_var2892_                            0.10740997652707 	(obj:0)
_var2893_                           0.115424709944726 	(obj:0)
_var2894_                          0.0533463089270159 	(obj:0)
_var2895_                          0.0764764354846899 	(obj:0)
_var2898_                          0.0231629880800531 	(obj:0)
_var2899_                          0.0407821109817285 	(obj:0)
_var2900_                          0.0756548329487121 	(obj:0)
_var2901_                           0.104541087187474 	(obj:0)
_var2902_                          0.0378485847747925 	(obj:0)
_var2903_                           0.155640444408165 	(obj:0)
_var2904_                          0.0924009680864672 	(obj:0)
_var2910_                          0.0394269807381052 	(obj:0)
_var2911_                           0.178895585660783 	(obj:0)
_var2912_                           0.118578500564744 	(obj:0)
_var2920_                          0.0810940721417595 	(obj:0)
_var2927_                          0.0857402599513607 	(obj:0)
_var2928_                          0.0113761984756476 	(obj:0)
_var2929_                           0.169248603279401 	(obj:0)
_var2930_                            0.08915172103469 	(obj:0)
_var2932_                          0.0620251611453145 	(obj:0)
_var2933_                          0.0190831152057527 	(obj:0)
_var2935_                           0.170343644811088 	(obj:0)
_var2936_                           0.172445618089135 	(obj:0)
_var2937_                          0.0167379617149166 	(obj:0)
_var2938_                          0.0647113927165173 	(obj:0)
_var2939_                           0.153618351349136 	(obj:0)
_var2941_                           0.138443622302691 	(obj:0)
_var2943_                           0.142249130558502 	(obj:0)
_var2946_                          0.0788867045671318 	(obj:0)
_var2948_                          0.0526157946438131 	(obj:0)
_var2949_                            0.14121481278999 	(obj:0)
_var2955_                           0.166188704148518 	(obj:0)
_var2957_                           0.154146590151523 	(obj:0)
_var2960_                          0.0446566715977316 	(obj:0)
_var2963_                           0.132770771989523 	(obj:0)
_var2964_                          0.0412952630211611 	(obj:0)
_var2965_                          0.0576764743071821 	(obj:0)
_var2966_                           0.124783419082699 	(obj:0)
_var2967_                          0.0489619349590483 	(obj:0)
_var2968_                            0.16684976801253 	(obj:0)
_var2969_                           0.148419546759515 	(obj:0)
_var2970_                         0.00769553845536089 	(obj:0)
_var2971_                         0.00409742552194547 	(obj:0)
_var2973_                          0.0470274027797511 	(obj:0)
_var2976_                          0.0924611595579876 	(obj:0)
_var2977_                          0.0270866093620889 	(obj:0)
_var2978_                          0.0943816168624991 	(obj:0)
_var2979_                          0.0457120034715316 	(obj:0)
_var2981_                          0.0142117744992036 	(obj:0)
_var2982_                           0.163484798171958 	(obj:0)
_var2985_                           0.161754253608509 	(obj:0)
_var2987_                          0.0720521505638563 	(obj:0)
_var2988_                          0.0846309125905957 	(obj:0)
_var2990_                          0.0667160329018966 	(obj:0)
_var2991_                          0.0486736112685354 	(obj:0)
_var2992_                           0.127975743250119 	(obj:0)
_var2994_                          0.0179394356810896 	(obj:0)
_var2999_                           0.185065848583479 	(obj:0)
_var3001_                          0.0260641300534872 	(obj:0)
_var3002_                          0.0579818307353968 	(obj:0)
_var3003_                         0.00844502947466873 	(obj:0)
_var3006_                          0.0343761664062455 	(obj:0)
_var3007_                          0.0928268300155646 	(obj:0)
_var3008_                          0.0389064969790051 	(obj:0)
_var3009_                         0.00477517296235658 	(obj:0)
_var3010_                          0.0546795128373564 	(obj:0)
_var3016_                          0.0226292859508324 	(obj:0)
_var3018_                          0.0483035275605994 	(obj:0)
_var3019_                            0.01074057352303 	(obj:0)
